GeneratedTests/Random_8/Random_8_4.tsp
NAME: Random_8_4
TYPE: TSP
DIMENSION: 8
EDGE_WEIGHT_TYPE: EUC_2D
NODE_COORD_SECTION
1 2.5419202 0.90652657
2 1.578136 6.083041
3 3.090321 21.70191
4 0.49706697 22.202051
5 0.78881407 1.5984821
6 4.723828 14.432203
7 0.5319271 18.971855
8 1.5332465 12.2431755
EOF
