GeneratedTests/Random_8/Random_8_4.txt
NAME: Random_8_4
TYPE: TSP
DIMENSION: 8
EDGE_WEIGHT_TYPE: EUC_2D
NODE_COORD_SECTION
1 11.09898 10.696447
2 12.831668 23.002192
3 22.326584 7.8726454
4 16.000412 12.36793
5 2.2563343 1.6607909
6 13.244793 9.829023
7 0.3921919 17.610668
8 17.009455 2.6868653
EOF
